000 000 000 000 000 -99 -99 000 -99 -99 -99 -99 -99 000 000 -99 -99 -99 000 000 -99 -99 -99 -99 000 000 000 -99 -99 -99 000
000 000 -99 000 000 000 000 000 -99 -99 -99 -99 -99 -99 000 000 -99 -99 -99 000 000 -99 -99 -99 -99 000 000 -99 -99 -99 000
000 000 000 000 000 000 000 000 000 000 -99 -99 -99 -99 000 000 -99 -99 -99 000 000 -99 000 -99 -99 000 000 000 000 -99 -99
000 000 000 000 000 000 000 000 000 000 -99 -99 -99 -99 000 000 -99 -99 -99 000 -99 000 000 -99 -99 -99 000 000 -99 -99 -99
000 000 000 000 000 000 000 000 000 000 -99 -99 000 -99 -99 000 000 -99 -99 -99 000 000 000 000 000 -99 000 000 000 -99 -99
000 000 000 000 000 000 000 000 000 000 -99 000 000 -99 000 000 -99 -99 -99 -99 000 000 000 000 000 -99 -99 000 000 -99 -99
000 000 000 000 000 000 000 000 000 -99 -99 000 000 000 000 000 -99 -99 -99 -99 000 000 000 000 000 000 -99 -99 -99 -99 -99
000 000 000 000 000 000 000 000 000 000 -99 -99 000 001 -99 000 000 000 -99 -99 -99 000 -99 000 000 000 -99 -99 -99 000 -99
000 000 000 000 000 -99 -99 000 000 000 -99 -99 002 002 -99 -99 -99 000 000 -99 000 000 000 000 000 000 000 000 -99 000 -99
000 000 000 000 000 000 -99 000 000 000 000 -99 001 001 -99 -99 -99 000 000 -99 000 -99 -99 -99 000 000 000 000 000 000 -99
000 000 000 000 000 -99 000 000 000 000 000 -99 -99 -99 -99 -99 000 000 000 -99 -99 -99 -99 -99 000 -99 000 000 000 000 000
000 000 000 000 000 000 000 000 000 000 000 000 000 -99 -99 -99 000 000 000 -99 -99 -99 -99 000 000 000 000 000 000 000 000
000 000 000 000 000 000 000 000 000 000 000 000 000 -99 -99 -99 000 000 000 -99 -99 -99 -99 -99 000 000 000 000 000 000 000
000 000 000 000 000 000 000 000 -99 -99 000 000 000 -99 -99 -99 -99 000 000 -99 -99 -99 000 -99 000 000 000 000 000 000 000
000 000 -99 000 000 000 000 000 -99 -99 -99 -99 -99 -99 -99 -99 -99 -99 -99 -99 -99 -99 000 -99 000 000 000 000 000 000 000
000 -99 000 000 000 000 000 000 000 -99 -99 -99 -99 000 -99 -99 -99 -99 -99 -99 -99 -99 000 -99 000 000 -99 000 000 000 000
000 -99 000 000 000 000 000 000 000 -99 -99 -99 -99 000 000 -99 -99 000 -99 -99 -99 -99 000 000 000 000 -99 000 000 000 000
000 000 -99 000 -99 000 000 000 000 -99 -99 -99 -99 000 000 -99 000 000 000 -99 -99 000 000 -99 000 000 -99 -99 -99 000 000
000 000 000 000 -99 -99 000 000 000 -99 -99 -99 -99 -99 000 -99 000 000 000 -99 -99 000 000 -99 -99 000 000 000 -99 000 -99
000 000 000 000 000 -99 -99 000 000 -99 -99 -99 -99 -99 -99 000 000 000 000 -99 -99 000 000 -99 -99 -99 -99 -99 -99 -99 -99
000 000 000 000 000 000 -99 000 000 -99 -99 -99 -99 -99 -99 000 000 000 000 000 -99 000 000 -99 -99 -99 -99 -99 -99 -99 -99
000 000 000 000 000 000 000 000 000 -99 -99 -99 -99 -99 -99 000 000 000 000 000 000 000 000 -99 -99 -99 -99 -99 -99 -99 -99
-99 000 -99 000 000 000 000 000 000 -99 -99 -99 -99 -99 -99 000 000 000 000 000 000 000 000 -99 -99 -99 -99 -99 -99 -99 -99
000 000 -99 000 000 000 000 000 000 -99 -99 -99 -99 -99 000 000 000 000 000 000 000 000 000 -99 -99 -99 -99 -99 -99 -99 -99
000 000 000 000 000 000 -99 000 000 000 -99 -99 -99 -99 000 000 000 000 -99 000 000 000 000 -99 -99 -99 -99 -99 -99 -99 -99
-99 -99 000 000 000 000 -99 000 000 000 -99 -99 -99 -99 000 000 000 000 000 -99 -99 -99 -99 -99 -99 -99 -99 -99 -99 -99 -99
000 000 000 000 000 000 -99 -99 000 000 -99 -99 -99 -99 000 000 000 000 000 -99 -99 000 -99 -99 -99 -99 -99 -99 -99 -99 -99
000 000 000 000 000 000 000 000 000 000 -99 -99 -99 -99 000 000 000 000 000 -99 -99 000 -99 -99 -99 -99 -99 -99 -99 -99 000
000 000 000 000 000 000 000 000 000 000 -99 -99 -99 -99 000 000 000 000 000 000 000 000 -99 -99 -99 -99 -99 -99 -99 -99 000
-99 000 000 -99 000 000 000 000 000 000 -99 -99 -99 -99 000 000 000 000 000 000 000 000 -99 -99 -99 -99 -99 -99 -99 -99 000
000 000 000 000 000 000 000 000 000 000 000 -99 -99 000 000 000 -99 -99 000 000 000 000 -99 -99 -99 -99 -99 -99 -99 -99 000
000 000 000 000 000 000 000 000 000 -99 -99 -99 -99 000 000 -99 000 000 000 -99 -99 -99 000 000 -99 000 -99 -99 -99 -99 000
000 000 002 002 001 001 000 000 000 -99 -99 -99 -99 000 000 -99 000 000 000 -99 -99 000 000 000 -99 000 -99 000 000 -99 -99
000 000 003 002 002 002 000 000 -99 000 -99 -99 000 000 000 000 000 000 000 -99 -99 000 000 000 -99 000 000 000 000 000 000
000 003 004 001 001 001 000 000 -99 000 -99 -99 000 000 000 000 000 000 -99 -99 000 000 000 000 000 000 000 000 000 000 000
001 002 001 000 000 000 000 000 000 000 -99 000 000 000 000 000 000 000 000 000 000 000 000 000 000 000 000 000 000 000 -99
000 000 000 000 000 000 000 000 000 000 000 000 000 000 000 000 000 000 000 -99 -99 000 -99 -99 000 000 000 000 000 000 -99
000 000 000 000 000 000 -99 000 000 000 -99 000 000 000 000 000 000 000 000 -99 000 000 -99 -99 000 -99 000 -99 -99 -99 -99
000 000 000 -99 000 000 -99 -99 -99 000 -99 -99 000 000 000 000 000 000 -99 -99 000 000 000 000 000 -99 -99 -99 -99 -99 -99
000 000 000 000 000 -99 -99 -99 -99 -99 -99 000 000 000 000 000 000 000 -99 -99 -99 -99 000 000 -99 -99 000 -99 -99 -99 -99
000 000 000 000 -99 -99 -99 -99 -99 -99 000 000 000 000 000 000 000 -99 -99 -99 -99 -99 000 000 -99 -99 000 -99 -99 -99 -99
000 000 -99 -99 -99 -99 000 -99 -99 -99 000 000 000 000 000 000 -99 000 -99 -99 -99 -99 000 000 -99 -99 -99 -99 -99 000 -99
000 000 -99 -99 -99 000 000 -99 -99 -99 000 000 000 -99 -99 -99 000 000 -99 000 000 000 000 -99 -99 000 -99 -99 -99 -99 000
000 000 -99 -99 -99 000 000 -99 -99 -99 -99 000 000 -99 000 000 000 000 -99 -99 -99 -99 -99 -99 000 000 -99 -99 -99 -99 000
000 000 -99 -99 -99 -99 000 -99 -99 -99 000 000 000 -99 000 000 000 000 -99 -99 -99 -99 -99 000 000 -99 -99 -99 -99 -99 -99
-99 -99 -99 -99 -99 -99 -99 -99 -99 -99 000 000 000 -99 000 000 000 000 000 000 000 -99 -99 000 000 000 000 000 -99 -99 -99
000 -99 -99 -99 -99 -99 -99 000 000 001 000 000 000 000 000 000 000 000 000 000 000 000 000 000 000 000 000 -99 -99 -99 -99
000 -99 -99 -99 -99 -99 001 002 012 002 000 000 000 000 000 000 000 004 008 002 000 000 000 000 000 000 000 000 -99 -99 -99
000 -99 -99 -99 -99 000 002 021 014 000 000 000 000 000 000 000 003 020 028 003 000 000 000 000 001 000 000 000 -99 -99 -99
000 000 000 000 000 000 004 010 000 000 000 001 003 002 000 002 013 022 022 001 000 001 000 004 006 004 000 000 -99 -99 -99
000 000 000 000 000 000 002 000 000 001 001 001 004 005 004 012 033 057 033 000 001 001 002 009 030 013 000 -99 -99 -99 -99
000 000 000 000 000 000 000 000 000 001 001 003 005 009 020 040 091 082 080 023 007 002 005 017 050 011 000 -99 -99 -99 -99
-99 000 000 000 000 001 001 001 001 001 003 005 017 030 065 056 102 094 102 042 026 010 023 052 044 000 000 -99 -99 -99 -99
-99 -99 000 000 000 002 003 003 004 003 003 010 028 044 078 062 056 107 131 082 026 020 034 035 004 000 -99 -99 -99 -99 -99
000 000 000 000 001 003 002 005 010 007 007 016 035 055 048 068 077 140 085 028 029 031 026 008 001 000 -99 -99 -99 -99 -99
